clingo version 4.5.3
Reading from test.lp
Solving...
Answer: 1
picked(3) picked(4)
Answer: 2
picked(2) picked(3)
Answer: 3
picked(2) picked(4)
Answer: 4
picked(1) picked(3)
Answer: 5
picked(1) picked(2)
Answer: 6
picked(1) picked(4)
SATISFIABLE

Models       : 6
Calls        : 1
Time         : 0.001s (Solving: 0.00s 1st Model: 0.00s Unsat: 0.00s)
CPU Time     : 0.000s
